webassembly/ejemplos_dzn/folder14_json_88.dzn
TERM = { '.', 's(5)', 'in_1', 'in_6', 'in_9', 'in_0', 's(4)', 'in_3', 's(1)', 's(7)', 's(2)', 's(9)', 'in_2', 's(8)', 's(6)', 'in_8', 's(0)', 's(3)', 'local_1', 'in_4', 'in_7', 'in_5'};
null = '.';
s = 14;
n = 15;
ndeps = 10;
max_registers_sz = 3;
NR = 0;
registers = [| |];
dependencies = [|'i32.store8_1', 'i32.store8_2', |'i32.store8_2', 'call[function_index(0)]_4', |'call[function_index(0)]_4', 'i32.load16_u_5', |'call[function_index(0)]_4', 'i32.load8_s_6', |'i32.load16_u_5', 'call[function_index(1)]_9', |'i32.load8_s_6', 'call[function_index(1)]_9', |'call[function_index(1)]_9', 'i32.store8_10', |'i32.store8_10', 'i32.store8_11', |'i32.store8_11', 'i32.load8_u_12', |'i32.store8_11', 'i32.load8_s_13'|];
GET_ENUM = { GET1, GET2, GET3};
SET_ENUM = { SET1, SET2, SET3};
TEE_ENUM = { TEE1, TEE2, TEE3};
N = 14;
OP = { 'call[function_index(0)]_4', 'call[function_index(1)]_9', 'i32.sub_0', 'i32.store8_1', 'i32.store8_2', 'i32.load16_u_5', 'i32.load8_s_6', 'i32.add_0', 'i32.add_1', 'i32.store8_10', 'i32.store8_11', 'i32.load8_u_12', 'i32.load8_s_13', 'local.get_0' };
in_ops = [2, 0, 2, 2, 2, 1, 1, 2, 2, 2, 2, 1, 1, 0 ];
out_ops = [3, 0, 1, 0, 0, 1, 1, 1, 1, 0, 0, 1, 1, 1 ];
in1 = ['local_1', '.', 'in_0', 's(0)', 'in_3', 's(3)', 's(4)', 's(5)', 's(6)', 's(7)', 'in_7', 'in_9', 's(8)', '.' ];
in2 = ['in_5', '.', 'in_1', 'in_2', 'in_4', '.', '.', 's(2)', 's(1)', 'in_6', 'in_8', '.', '.', '.' ];
in3 = ['.', '.', '.', '.', '.', '.', '.', '.', '.', '.', '.', '.', '.', '.' ];
out1 = ['s(3)', '.', 's(0)', '.', '.', 's(4)', 's(5)', 's(6)', 's(7)', '.', '.', 's(8)', 's(9)', 'local_1' ];
out2 = ['s(2)', '.', '.', '.', '.', '.', '.', '.', '.', '.', '.', '.', '.', '.' ];
out3 = ['s(1)', '.', '.', '.', '.', '.', '.', '.', '.', '.', '.', '.', '.', '.' ];
comm = [false, false, false, false, false, false, false, true, true, false, false, false, false, false ];
gas = [1, 1, 1, 1, 1, 1, 1, 1, 1, 1, 1, 1, 1, 1 ];
sz = [1, 1, 1, 1, 1, 1, 1, 1, 1, 1, 1, 1, 1, 1 ];
stor = [true, true, false, true, true, false, false, false, false, true, true, false, false, false ];
lb = [ 1, 1, 1, 1, 1, 1, 1, 1, 1, 1, 1, 1, 1, 1 ];
ub = [ 14, 14, 14, 14, 14, 14, 14, 14, 14, 14, 14, 14, 14, 14 ];
startstack = [ 'in_0', 'in_1', 'in_2', 'in_3', 'in_4', 'in_5', 'in_6', 'in_7', 'in_8', 'in_9', null, null, null, null, null ];
endstack = [ 's(9)', null, null, null, null, null, null, null, null, null, null, null, null, null, null ];
